NAME : random_4
COMMENT : 30 random nodes
TYPE : TSP
DIMENSION : 30
EDGE_WEIGHT_TYPE : EUC_2D
NODE_COORD_SECTION
1 300 690
2 140 398
3 778 670
4 737 175
5 543 313
6 490 895
7 426 796
8 44 949
9 114 234
10 495 972
11 248 425
12 551 390
13 363 285
14 32 576
15 482 993
16 824 880
17 732 638
18 172 142
19 752 92
20 890 562
21 228 96
22 798 647
23 261 42
24 260 734
25 374 171
26 605 607
27 895 418
28 997 848
29 101 93
30 474 287
EOF